Interaction/Confidence_interval_model_files/model-ce-small.lp
\ Model birth-death-regulation-capture-efficiency
\ LP format - for model browsing. Use MPS format to capture full model detail.
Maximize
  k_reg
Subject To
 R0: k_deg_2 = 1
 B_lb_0,_0: 0.25 p[1,1] + 0.125 p[1,2] + 0.125 p[2,1] + 0.0625 p[2,2]
   >= -0.0447585725155241
 B_ub_0,_0: 0.25 p[1,1] + 0.125 p[1,2] + 0.125 p[2,1] + 0.0625 p[2,2]
   <= 0.5246
 B_lb_0,_1: 0.25 p[1,2] + 0.125 p[2,2] >= -0.3721585725155241
 B_ub_0,_1: 0.25 p[1,2] + 0.125 p[2,2] <= 0.1908
 B_lb_0,_2: >= -0.5153535725155242
 B_ub_0,_2: <= 0.0362
 B_lb_1,_0: 0.25 p[2,1] + 0.125 p[2,2] >= -0.3801535725155242
 B_ub_1,_0: 0.25 p[2,1] + 0.125 p[2,2] <= 0.182405
 B_lb_1,_1: 0.25 p[2,2] >= -0.5011535725155242
 B_ub_1,_1: 0.25 p[2,2] <= 0.052
 B_lb_1,_2: >= -0.5387535725155241
 B_ub_1,_2: <= 0.0068
 B_lb_2,_0: >= -0.5103535725155242
 B_ub_2,_0: <= 0.0416
 B_lb_2,_1: >= -0.5373535725155242
 B_ub_2,_1: <= 0.009
 B_lb_2,_2: >= -0.5417535725155241
 B_ub_2,_2: <= 1
 Distribution: p[0,0] + p[0,1] + p[0,2] + p[1,0] + p[1,1] + p[1,2] + p[2,0]
   + p[2,1] + p[2,2] <= 1
 Equation_0,_0: [ - p[0,0] * k_tx_1 - p[0,0] * k_tx_2 + p[0,1] * k_deg_2
   + p[1,0] * k_deg_1 + p[1,1] * k_reg ] = 0
 Equation_0,_1: [ p[0,0] * k_tx_2 - p[0,1] * k_tx_1 - p[0,1] * k_tx_2
   - p[0,1] * k_deg_2 + 2 p[0,2] * k_deg_2 + p[1,1] * k_deg_1
   + 2 p[1,2] * k_reg ] = 0
 Equation_1,_0: [ p[0,0] * k_tx_1 - p[1,0] * k_tx_1 - p[1,0] * k_tx_2
   - p[1,0] * k_deg_1 + p[1,1] * k_deg_2 + 2 p[2,0] * k_deg_1
   + 2 p[2,1] * k_reg ] = 0
 Equation_1,_1: [ p[0,1] * k_tx_1 + p[1,0] * k_tx_2 - p[1,1] * k_tx_1
   - p[1,1] * k_tx_2 - p[1,1] * k_deg_1 - p[1,1] * k_deg_2 - p[1,1] * k_reg
   + 2 p[1,2] * k_deg_2 + 2 p[2,1] * k_deg_1 + 4 p[2,2] * k_reg ] = 0
Bounds
 p[0,0] <= 1
 p[0,1] <= 1
 p[0,2] <= 1
 p[1,0] <= 1
 p[1,1] <= 1
 p[1,2] <= 1
 p[2,0] <= 1
 p[2,1] <= 1
 p[2,2] <= 1
 k_tx_1 <= 10
 k_tx_2 <= 10
 k_deg_1 <= 10
 k_deg_2 <= 10
 k_reg <= 10
End
